%mem=16MW
#MP2/aug-cc-pVDZ scan

C1H...OHH  90.0 degrees, mp2/aug-cc-pVDZ

0 1
 C1    0.173030   -1.226543    0.000000
 H1   -0.387009   -2.164857    0.000000
 C2    1.580080   -1.217204    0.000000
 H2    2.122475   -2.167243    0.000000
 C3    2.286660    0.000000    0.000000
 H3    3.380093    0.000000    0.000000
 C4    1.580080    1.217204    0.000000
 H4    2.122476    2.167243    0.000000
 C5    0.173029    1.226543    0.000000
 H5   -0.387010    2.164857    0.000000
 C6   -0.512547    0.000000    0.000000
 CL6  -2.266648    0.000000    0.000000
x      CL6    1.   C6  90.  C5   0.0
o1w    CL6  roh     x  90.  C6 180.0
h1w   o1w  0.9572 CL6 127.74 x 180.0
h2w   o1w  0.9572 CL6 127.74 x   0.0

roh 2.5 25 0.1



