%mem=16MW
#MP2/6-31G(d) Opt=Z-matrix

C1H...OHH  90.0 degrees, MP2/6-31G(d)

0 1
C1        1.398916    0.231170   -0.014468
O1        2.375212    0.967461   -0.141607
H1        1.494996   -0.857392    0.136416
N1        0.104671    0.653641   -0.042812
H11      -0.092836    1.638094   -0.176587
H12      -0.665160    0.008526    0.066557
x      H1    1.   C1  90.  O1   0.0
o1w    H1  roh     x  90.  C1 180.0
h1w   o1w  0.9572 H1 127.74 x  90.0
h2w   o1w  0.9572 H1 127.74 x -90.0

roh 2.1



