# RI-MP2/cc-pVQZ//MP2/aug-ccpvdz

memory 1000 mb

molecule chlb_water_mp2_H2 {
0 1 
 C       -0.595259   0.317552   0.000000
 H       -1.533573   0.877591   0.000000
 C       -0.585920   -1.089498   0.000000
 H       -1.535959   -1.631893   0.000000
 C       0.631284   -1.796078   0.000000
 H       0.631284   -2.889511   0.000000
 C       1.848488   -1.089498   0.000000
 H       2.798527   -1.631894   0.000000
 C       1.857827   0.317553   0.000000
 H       2.796141   0.877592   0.000000
 C       0.631284   1.003129   0.000000
Cl       0.631284   2.757230   0.000000
--
0 1 
 O       -3.559686   -2.787277   0.000000
 H       -4.068486   -3.077760   0.756950
 H       -4.068486   -3.077760   -0.756950
}

set basis cc-pvqz
set df_basis_scf cc-pvqz-jkfit
set df_basis_mp2 cc-pvqz-ri
set guess sad
set scf_type df
set freeze_core True
cp('df-mp2')


