%CHK=CLET_OPT_FREQ_MP2
%MEM=1200MB
%NPROCSHARED=2
#MP2/AUG-CC-PVDZ OPT=(TIGHT,MAXCYCLE=200) POP=(MK,DIPOLE) DENSITY=CURRENT

CLET OPTIMIZED AT MP2/AUG-CC-PVDZ*

0 1
 C     1.78548     0.00998    -0.00000
 Cl    -0.00809     0.00269    -0.00000
 H     2.09366    -0.54206     0.91259
 H     2.09366    -0.54206    -0.91259
 C     2.30501     1.44306     0.00000
 H     3.41533     1.46418    -0.00000
 H     1.95095     1.99308    -0.89809
 H     1.95095     1.99308     0.89809



--LINK1--
%CHK=CLET_OPT_FREQ_MP2
%MEM=1200MB
%NPROCSHARED=2
#MP2/AUG-CC-PVDZ NOSYMM SCF=TIGHT GEOM=ALLCHECK FREQ IOP(7/33=1)

CLET FREQUENCY

0 1




