%mem=16MW
#MP3/6-31++G(3d,3p) scan

C1H...Ne  0.0 degrees

0 1
C1        0.000000    0.822370    0.000000
CL11      0.825357   -0.789016    0.000000
H12       0.356564    1.347568    0.896000
H13       0.356564    1.347568   -0.896000
C2       -1.511627    0.654420    0.000000
H21      -1.990226    1.647724    0.000000
H22      -1.842105    0.104833   -0.893316
H23      -1.842105    0.104833    0.893316
x      CL11    1.   C1  90.  C2   0.0
Ne    CL11  roh     x  90.  C1 180.0

roh 1.5 45 0.1



