# RI-MP2/cc-pVQZ//MP2/aug-cc-pvdz
memory 1000 mb

molecule geom_39 {
0 1 
 C       1.411115   0.374005   -0.402234
Cl       -0.376340   0.233044   -0.263478
Cl       2.192821   -1.148835   0.149134
 H       1.627789   0.456937   -1.473641
 C       1.917117   1.555198   0.403018
 H       3.008544   1.635126   0.288361
 H       1.442179   2.477690   0.036703
 H       1.672352   1.417553   1.465633
--
0 1 
 O       -5.743578   -0.190223   0.153167
 H       -6.408158   0.211446   -0.406499
 H       -6.243654   -0.683740   0.803243
}

set basis cc-pvqz
set df_basis_scf cc-pvqz-jkfit
set df_basis_mp2 cc-pvqz-ri
set guess sad
set scf_type df
set freeze_core True
cp('df-mp2')


