# RI-MP2/cc-pVQZ//MP2/aug-cc-pvdz
memory 1000 mb

molecule geom_32 {
0 1 
 C       1.286555   0.378479   -0.408305
Cl       -0.497548   0.216549   -0.250599
Cl       2.092334   -1.131806   0.142945
 H       1.491333   0.458353   -1.482281
 C       1.786241   1.569986   0.385616
 H       2.875393   1.662559   0.259422
 H       1.296392   2.484684   0.019389
 H       1.553955   1.435015   1.451371
--
0 1 
 O       -5.160275   -0.206652   0.161561
 H       -5.835345   0.183939   -0.393372
 H       -5.647677   -0.702753   0.819250
}

set basis cc-pvqz
set df_basis_scf cc-pvqz-jkfit
set df_basis_mp2 cc-pvqz-ri
set guess sad
set scf_type df
set freeze_core True
cp('df-mp2')


