# RI-MP2/cc-pVQZ//MP2/aug-cc-pvdz
memory 1000 mb

molecule geom_29 {
0 1 
 C       -1.232527   0.380628   0.411169
Cl       0.549707   0.207980   0.243980
Cl       -2.050518   -1.123145   -0.139894
 H       -1.431358   0.458958   1.486376
 C       -1.728765   1.577311   -0.377108
 H       -2.816663   1.676349   -0.245142
 H       -1.231356   2.487970   -0.011004
 H       -1.502729   1.443692   -1.444376
--
0 1 
 O       4.910239   -0.214430   -0.165076
 H       5.590541   0.170482   0.387431
 H       5.391191   -0.711835   -0.826518
}

set basis cc-pvqz
set df_basis_scf cc-pvqz-jkfit
set df_basis_mp2 cc-pvqz-ri
set guess sad
set scf_type df
set freeze_core True
cp('df-mp2')


