# RI-MP2/cc-pVQZ//MP2/aug-cc-pvdz
memory 1000 mb

molecule geom_43 {
0 1 
 C       1.481525   0.371751   -0.399123
Cl       -0.307373   0.240732   -0.269533
Cl       2.251737   -1.156960   0.152176
 H       1.703961   0.456154   -1.469234
 C       1.990322   1.547962   0.411641
 H       3.082743   1.621895   0.302565
 H       1.522507   2.474101   0.045361
 H       1.739526   1.409031   1.472681
--
0 1 
 O       -6.076841   -0.181822   0.148415
 H       -6.736331   0.225087   -0.413484
 H       -6.582948   -0.674100   0.794751
}

set basis cc-pvqz
set df_basis_scf cc-pvqz-jkfit
set df_basis_mp2 cc-pvqz-ri
set guess sad
set scf_type df
set freeze_core True
cp('df-mp2')


