# RI-MP2/cc-pVQZ//MP2/aug-cc-pvdz
memory 1000 mb

molecule geom_20 {
0 1 
 C       -1.067283   0.388028   0.420748
Cl       0.706918   0.174651   0.218773
Cl       -1.931101   -1.090404   -0.128954
 H       -1.244352   0.460576   1.500156
 C       -1.549113   1.603815   -0.346966
 H       -2.631711   1.727425   -0.193831
 H       -1.023358   2.498763   0.018269
 H       -1.346032   1.475272   -1.419460
--
0 1 
 O       4.159892   -0.240626   -0.174314
 H       4.859283   0.122578   0.368978
 H       4.616522   -0.742860   -0.849208
}

set basis cc-pvqz
set df_basis_scf cc-pvqz-jkfit
set df_basis_mp2 cc-pvqz-ri
set guess sad
set scf_type df
set freeze_core True
cp('df-mp2')


