# RI-MP2/cc-pVQZ//MP2/aug-cc-pvdz
memory 1000 mb

molecule geom_19 {
0 1 
 C       -1.048562   0.388943   0.421900
Cl       0.724442   0.170047   0.215363
Cl       -1.918517   -1.085981   -0.127548
 H       -1.222783   0.460715   1.501823
 C       -1.528284   1.607252   -0.343132
 H       -2.610100   1.734192   -0.187222
 H       -0.998735   2.500026   0.021942
 H       -1.328216   1.479391   -1.416273
--
0 1 
 O       4.076495   -0.243799   -0.175117
 H       4.778376   0.116447   0.366932
 H       4.529853   -0.746671   -0.851739
}

set basis cc-pvqz
set df_basis_scf cc-pvqz-jkfit
set df_basis_mp2 cc-pvqz-ri
set guess sad
set scf_type df
set freeze_core True
cp('df-mp2')


