# RI-MP2/cc-pVQZ//MP2/aug-cc-pvdz
memory 1000 mb

molecule geom_9 {
0 1 
 C       -0.855805   0.399011   0.434051
Cl       0.899609   0.109195   0.172053
Cl       -1.803053   -1.029200   -0.110971
 H       -0.995548   0.460899   1.519583
 C       -1.305323   1.648361   -0.298578
 H       -2.375823   1.818107   -0.108940
 H       -0.728053   2.512220   0.063712
 H       -1.141951   1.529250   -1.378915
--
0 1 
 O       3.242290   -0.277579   -0.177596
 H       3.974190   0.044249   0.348694
 H       3.654169   -0.788243   -0.874596
}

set basis cc-pvqz
set df_basis_scf cc-pvqz-jkfit
set df_basis_mp2 cc-pvqz-ri
set guess sad
set scf_type df
set freeze_core True
cp('df-mp2')


