# RI-MP2/cc-pVQZ//MP2/aug-cc-pvdz
memory 1000 mb

molecule geom_34 {
0 1 
 C       1.322342   0.377126   -0.406484
Cl       -0.462847   0.221719   -0.254618
Cl       2.120659   -1.137089   0.144838
 H       1.530783   0.457946   -1.479685
 C       1.824054   1.565452   0.390919
 H       2.913939   1.654092   0.268279
 H       1.338827   2.482591   0.024642
 H       1.587922   1.429655   1.455723
--
0 1 
 O       -5.326947   -0.201720   0.159173
 H       -5.998791   0.192322   -0.397234
 H       -5.818284   -0.697021   0.814533
}

set basis cc-pvqz
set df_basis_scf cc-pvqz-jkfit
set df_basis_mp2 cc-pvqz-ri
set guess sad
set scf_type df
set freeze_core True
cp('df-mp2')


