# RI-MP2/cc-pVQZ//MP2/aug-cc-pvdz
memory 1000 mb

molecule geom_24 {
0 1 
 C       -1.226543   -1.244181   0.000000
 H       -2.164857   -0.684142   0.000000
 C       -1.217204   -2.651231   0.000000
 H       -2.167243   -3.193626   0.000000
 C       0.000000   -3.357811   0.000000
 H       0.000000   -4.451244   0.000000
 C       1.217204   -2.651231   0.000000
 H       2.167243   -3.193627   0.000000
 C       1.226543   -1.244180   0.000000
 H       2.164857   -0.684141   0.000000
 C       0.000000   -0.558604   0.000000
Cl       0.000000   1.195497   0.000000
--
0 1 
 O       0.000000   6.095497   0.000000
 H       -0.756950   6.681380   0.000000
 H       0.756950   6.681380   0.000000
}

set basis cc-pvqz
set df_basis_scf cc-pvqz-jkfit
set df_basis_mp2 cc-pvqz-ri
set guess sad
set scf_type df
set freeze_core True
cp('df-mp2')


