# RI-MP2/cc-pVQZ//MP2/aug-cc-pvdz
memory 1000 mb

molecule geom_25 {
0 1 
 C       -1.226543   -1.258887   0.000000
 H       -2.164857   -0.698848   0.000000
 C       -1.217204   -2.665937   0.000000
 H       -2.167243   -3.208332   0.000000
 C       0.000000   -3.372517   0.000000
 H       0.000000   -4.465950   0.000000
 C       1.217204   -2.665937   0.000000
 H       2.167243   -3.208333   0.000000
 C       1.226543   -1.258886   0.000000
 H       2.164857   -0.698847   0.000000
 C       0.000000   -0.573310   0.000000
Cl       0.000000   1.180791   0.000000
--
0 1 
 O       0.000000   6.180791   0.000000
 H       -0.756950   6.766674   0.000000
 H       0.756950   6.766674   0.000000
}

set basis cc-pvqz
set df_basis_scf cc-pvqz-jkfit
set df_basis_mp2 cc-pvqz-ri
set guess sad
set scf_type df
set freeze_core True
cp('df-mp2')


