# RI-MP2/cc-pVQZ//MP2/aug-cc-pvdz
memory 1000 mb

molecule geom_7 {
0 1 
 C       -1.226543   -0.994181   0.000000
 H       -2.164857   -0.434142   0.000000
 C       -1.217204   -2.401231   0.000000
 H       -2.167243   -2.943626   0.000000
 C       0.000000   -3.107811   0.000000
 H       0.000000   -4.201244   0.000000
 C       1.217204   -2.401231   0.000000
 H       2.167243   -2.943627   0.000000
 C       1.226543   -0.994180   0.000000
 H       2.164857   -0.434141   0.000000
 C       0.000000   -0.308604   0.000000
Cl       0.000000   1.445497   0.000000
--
0 1 
 O       0.000000   4.645497   0.000000
 H       -0.756950   5.231380   0.000000
 H       0.756950   5.231380   0.000000
}

set basis cc-pvqz
set df_basis_scf cc-pvqz-jkfit
set df_basis_mp2 cc-pvqz-ri
set guess sad
set scf_type df
set freeze_core True
cp('df-mp2')


