# RI-MP2/cc-pVQZ//MP2/aug-cc-pvdz
memory 1000 mb

molecule geom_22 {
0 1 
 C       -1.226543   -1.214769   0.000000
 H       -2.164857   -0.654730   0.000000
 C       -1.217204   -2.621819   0.000000
 H       -2.167243   -3.164214   0.000000
 C       0.000000   -3.328399   0.000000
 H       0.000000   -4.421832   0.000000
 C       1.217204   -2.621819   0.000000
 H       2.167243   -3.164215   0.000000
 C       1.226543   -1.214768   0.000000
 H       2.164857   -0.654729   0.000000
 C       0.000000   -0.529192   0.000000
Cl       0.000000   1.224909   0.000000
--
0 1 
 O       0.000000   5.924909   0.000000
 H       -0.756950   6.510791   0.000000
 H       0.756950   6.510791   0.000000
}

set basis cc-pvqz
set df_basis_scf cc-pvqz-jkfit
set df_basis_mp2 cc-pvqz-ri
set guess sad
set scf_type df
set freeze_core True
cp('df-mp2')


