# RI-MP2/cc-pVQZ//MP2/aug-cc-pvdz
memory 1000 mb

molecule geom_18 {
0 1 
 C       -1.226543   -1.155945   0.000000
 H       -2.164857   -0.595906   0.000000
 C       -1.217204   -2.562995   0.000000
 H       -2.167243   -3.105390   0.000000
 C       0.000000   -3.269575   0.000000
 H       0.000000   -4.363008   0.000000
 C       1.217204   -2.562995   0.000000
 H       2.167243   -3.105391   0.000000
 C       1.226543   -1.155944   0.000000
 H       2.164857   -0.595905   0.000000
 C       0.000000   -0.470368   0.000000
Cl       0.000000   1.283733   0.000000
--
0 1 
 O       0.000000   5.583733   0.000000
 H       -0.756950   6.169615   0.000000
 H       0.756950   6.169615   0.000000
}

set basis cc-pvqz
set df_basis_scf cc-pvqz-jkfit
set df_basis_mp2 cc-pvqz-ri
set guess sad
set scf_type df
set freeze_core True
cp('df-mp2')


