# RI-MP2/cc-pVQZ//MP2/aug-cc-pvdz
memory 1000 mb

molecule geom_15 {
0 1 
 C       -1.226543   -1.111828   0.000000
 H       -2.164857   -0.551789   0.000000
 C       -1.217204   -2.518878   0.000000
 H       -2.167243   -3.061273   0.000000
 C       0.000000   -3.225458   0.000000
 H       0.000000   -4.318891   0.000000
 C       1.217204   -2.518878   0.000000
 H       2.167243   -3.061274   0.000000
 C       1.226543   -1.111827   0.000000
 H       2.164857   -0.551788   0.000000
 C       0.000000   -0.426251   0.000000
Cl       0.000000   1.327850   0.000000
--
0 1 
 O       0.000000   5.327850   0.000000
 H       -0.756950   5.913733   0.000000
 H       0.756950   5.913733   0.000000
}

set basis cc-pvqz
set df_basis_scf cc-pvqz-jkfit
set df_basis_mp2 cc-pvqz-ri
set guess sad
set scf_type df
set freeze_core True
cp('df-mp2')


