# RI-MP2/cc-pVQZ//MP2/aug-cc-pvdz
memory 1000 mb

molecule geom_6 {
0 1 
 C       -1.226543   -0.979475   0.000000
 H       -2.164857   -0.419436   0.000000
 C       -1.217204   -2.386525   0.000000
 H       -2.167243   -2.928920   0.000000
 C       0.000000   -3.093105   0.000000
 H       0.000000   -4.186538   0.000000
 C       1.217204   -2.386525   0.000000
 H       2.167243   -2.928921   0.000000
 C       1.226543   -0.979474   0.000000
 H       2.164857   -0.419435   0.000000
 C       0.000000   -0.293898   0.000000
Cl       0.000000   1.460203   0.000000
--
0 1 
 O       0.000000   4.560203   0.000000
 H       -0.756950   5.146086   0.000000
 H       0.756950   5.146086   0.000000
}

set basis cc-pvqz
set df_basis_scf cc-pvqz-jkfit
set df_basis_mp2 cc-pvqz-ri
set guess sad
set scf_type df
set freeze_core True
cp('df-mp2')


