# RI-MP2/cc-pVQZ//MP2/aug-cc-pvdz
memory 1000 mb

molecule geom_8 {
0 1 
 C       -1.226543   -1.008887   0.000000
 H       -2.164857   -0.448848   0.000000
 C       -1.217204   -2.415937   0.000000
 H       -2.167243   -2.958332   0.000000
 C       0.000000   -3.122517   0.000000
 H       0.000000   -4.215950   0.000000
 C       1.217204   -2.415937   0.000000
 H       2.167243   -2.958333   0.000000
 C       1.226543   -1.008886   0.000000
 H       2.164857   -0.448847   0.000000
 C       0.000000   -0.323310   0.000000
Cl       0.000000   1.430791   0.000000
--
0 1 
 O       0.000000   4.730791   0.000000
 H       -0.756950   5.316674   0.000000
 H       0.756950   5.316674   0.000000
}

set basis cc-pvqz
set df_basis_scf cc-pvqz-jkfit
set df_basis_mp2 cc-pvqz-ri
set guess sad
set scf_type df
set freeze_core True
cp('df-mp2')


