# RI-MP2/cc-pVQZ//MP2/aug-cc-pvdz
memory 1000 mb

molecule geom_1 {
0 1 
 C       -1.226543   -0.905945   0.000000
 H       -2.164857   -0.345906   0.000000
 C       -1.217204   -2.312995   0.000000
 H       -2.167243   -2.855390   0.000000
 C       0.000000   -3.019575   0.000000
 H       0.000000   -4.113008   0.000000
 C       1.217204   -2.312995   0.000000
 H       2.167243   -2.855391   0.000000
 C       1.226543   -0.905944   0.000000
 H       2.164857   -0.345905   0.000000
 C       0.000000   -0.220368   0.000000
Cl       0.000000   1.533733   0.000000
--
0 1 
 O       0.000000   4.133733   0.000000
 H       -0.756950   4.719615   0.000000
 H       0.756950   4.719615   0.000000
}

set basis cc-pvqz
set df_basis_scf cc-pvqz-jkfit
set df_basis_mp2 cc-pvqz-ri
set guess sad
set scf_type df
set freeze_core True
cp('df-mp2')


