# RI-MP2/cc-pVQZ//MP2/aug-cc-pvdz
memory 1000 mb

molecule geom_14 {
0 1 
 C       -1.226543   -1.097122   0.000000
 H       -2.164857   -0.537083   0.000000
 C       -1.217204   -2.504172   0.000000
 H       -2.167243   -3.046567   0.000000
 C       0.000000   -3.210752   0.000000
 H       0.000000   -4.304185   0.000000
 C       1.217204   -2.504172   0.000000
 H       2.167243   -3.046568   0.000000
 C       1.226543   -1.097121   0.000000
 H       2.164857   -0.537082   0.000000
 C       0.000000   -0.411545   0.000000
Cl       0.000000   1.342556   0.000000
--
0 1 
 O       0.000000   5.242556   0.000000
 H       -0.756950   5.828438   0.000000
 H       0.756950   5.828438   0.000000
}

set basis cc-pvqz
set df_basis_scf cc-pvqz-jkfit
set df_basis_mp2 cc-pvqz-ri
set guess sad
set scf_type df
set freeze_core True
cp('df-mp2')


