# RI-MP2/cc-pVQZ//MP2/aug-cc-pvdz
memory 1000 mb

molecule geom_19 {
0 1 
 C       -1.226543   -1.170651   0.000000
 H       -2.164857   -0.610612   0.000000
 C       -1.217204   -2.577701   0.000000
 H       -2.167243   -3.120096   0.000000
 C       0.000000   -3.284281   0.000000
 H       0.000000   -4.377714   0.000000
 C       1.217204   -2.577701   0.000000
 H       2.167243   -3.120097   0.000000
 C       1.226543   -1.170650   0.000000
 H       2.164857   -0.610611   0.000000
 C       0.000000   -0.485074   0.000000
Cl       0.000000   1.269027   0.000000
--
0 1 
 O       0.000000   5.669027   0.000000
 H       -0.756950   6.254909   0.000000
 H       0.756950   6.254909   0.000000
}

set basis cc-pvqz
set df_basis_scf cc-pvqz-jkfit
set df_basis_mp2 cc-pvqz-ri
set guess sad
set scf_type df
set freeze_core True
cp('df-mp2')


