# RI-MP2/cc-pVQZ//MP2/aug-cc-pvdz
memory 1000 mb

molecule geom_20 {
0 1 
 C       -1.226543   -1.185357   0.000000
 H       -2.164857   -0.625318   0.000000
 C       -1.217204   -2.592407   0.000000
 H       -2.167243   -3.134802   0.000000
 C       0.000000   -3.298987   0.000000
 H       0.000000   -4.392420   0.000000
 C       1.217204   -2.592407   0.000000
 H       2.167243   -3.134803   0.000000
 C       1.226543   -1.185356   0.000000
 H       2.164857   -0.625317   0.000000
 C       0.000000   -0.499780   0.000000
Cl       0.000000   1.254321   0.000000
--
0 1 
 O       0.000000   5.754321   0.000000
 H       -0.756950   6.340203   0.000000
 H       0.756950   6.340203   0.000000
}

set basis cc-pvqz
set df_basis_scf cc-pvqz-jkfit
set df_basis_mp2 cc-pvqz-ri
set guess sad
set scf_type df
set freeze_core True
cp('df-mp2')


