# RI-MP2/cc-pVQZ//MP2/aug-cc-pvdz
memory 1000 mb

molecule geom_4 {
0 1 
 C       -1.226543   -0.950063   0.000000
 H       -2.164857   -0.390024   0.000000
 C       -1.217204   -2.357113   0.000000
 H       -2.167243   -2.899508   0.000000
 C       0.000000   -3.063693   0.000000
 H       0.000000   -4.157126   0.000000
 C       1.217204   -2.357113   0.000000
 H       2.167243   -2.899509   0.000000
 C       1.226543   -0.950062   0.000000
 H       2.164857   -0.390023   0.000000
 C       0.000000   -0.264486   0.000000
Cl       0.000000   1.489615   0.000000
--
0 1 
 O       0.000000   4.389615   0.000000
 H       -0.756950   4.975497   0.000000
 H       0.756950   4.975497   0.000000
}

set basis cc-pvqz
set df_basis_scf cc-pvqz-jkfit
set df_basis_mp2 cc-pvqz-ri
set guess sad
set scf_type df
set freeze_core True
cp('df-mp2')


