# RI-MP2/cc-pVQZ//MP2/aug-cc-pvdz
memory 1000 mb

molecule geom_9 {
0 1 
 C       -1.226543   -1.023592   0.000000
 H       -2.164857   -0.463553   0.000000
 C       -1.217204   -2.430642   0.000000
 H       -2.167243   -2.973037   0.000000
 C       0.000000   -3.137222   0.000000
 H       0.000000   -4.230655   0.000000
 C       1.217204   -2.430642   0.000000
 H       2.167243   -2.973038   0.000000
 C       1.226543   -1.023591   0.000000
 H       2.164857   -0.463552   0.000000
 C       0.000000   -0.338015   0.000000
Cl       0.000000   1.416086   0.000000
--
0 1 
 O       0.000000   4.816086   0.000000
 H       -0.756950   5.401968   0.000000
 H       0.756950   5.401968   0.000000
}

set basis cc-pvqz
set df_basis_scf cc-pvqz-jkfit
set df_basis_mp2 cc-pvqz-ri
set guess sad
set scf_type df
set freeze_core True
cp('df-mp2')


