# RI-MP2/cc-pVQZ//MP2/aug-cc-pvdz
memory 1000 mb

molecule geom_21 {
0 1 
 C       -1.226543   -1.200063   0.000000
 H       -2.164857   -0.640024   0.000000
 C       -1.217204   -2.607113   0.000000
 H       -2.167243   -3.149508   0.000000
 C       0.000000   -3.313693   0.000000
 H       0.000000   -4.407126   0.000000
 C       1.217204   -2.607113   0.000000
 H       2.167243   -3.149509   0.000000
 C       1.226543   -1.200062   0.000000
 H       2.164857   -0.640023   0.000000
 C       0.000000   -0.514486   0.000000
Cl       0.000000   1.239615   0.000000
--
0 1 
 O       0.000000   5.839615   0.000000
 H       -0.756950   6.425497   0.000000
 H       0.756950   6.425497   0.000000
}

set basis cc-pvqz
set df_basis_scf cc-pvqz-jkfit
set df_basis_mp2 cc-pvqz-ri
set guess sad
set scf_type df
set freeze_core True
cp('df-mp2')


