# RI-MP2/cc-pVQZ//MP2/aug-cc-pvdz
memory 1000 mb

molecule geom_11 {
0 1 
 C       -1.226543   -1.053004   0.000000
 H       -2.164857   -0.492965   0.000000
 C       -1.217204   -2.460054   0.000000
 H       -2.167243   -3.002449   0.000000
 C       0.000000   -3.166634   0.000000
 H       0.000000   -4.260067   0.000000
 C       1.217204   -2.460054   0.000000
 H       2.167243   -3.002450   0.000000
 C       1.226543   -1.053003   0.000000
 H       2.164857   -0.492964   0.000000
 C       0.000000   -0.367427   0.000000
Cl       0.000000   1.386674   0.000000
--
0 1 
 O       0.000000   4.986674   0.000000
 H       -0.756950   5.572556   0.000000
 H       0.756950   5.572556   0.000000
}

set basis cc-pvqz
set df_basis_scf cc-pvqz-jkfit
set df_basis_mp2 cc-pvqz-ri
set guess sad
set scf_type df
set freeze_core True
cp('df-mp2')


