# RI-MP2/cc-pVQZ//MP2/aug-cc-pvdz
memory 1000 mb

molecule geom_2 {
0 1 
 C       -1.226543   -0.920651   0.000000
 H       -2.164857   -0.360612   0.000000
 C       -1.217204   -2.327701   0.000000
 H       -2.167243   -2.870096   0.000000
 C       0.000000   -3.034281   0.000000
 H       0.000000   -4.127714   0.000000
 C       1.217204   -2.327701   0.000000
 H       2.167243   -2.870097   0.000000
 C       1.226543   -0.920650   0.000000
 H       2.164857   -0.360611   0.000000
 C       0.000000   -0.235074   0.000000
Cl       0.000000   1.519027   0.000000
--
0 1 
 O       0.000000   4.219027   0.000000
 H       -0.756950   4.804909   0.000000
 H       0.756950   4.804909   0.000000
}

set basis cc-pvqz
set df_basis_scf cc-pvqz-jkfit
set df_basis_mp2 cc-pvqz-ri
set guess sad
set scf_type df
set freeze_core True
cp('df-mp2')


