# RI-MP2/cc-pVQZ//MP2/aug-cc-pvdz
memory 1000 mb

molecule geom_17 {
0 1 
 C       -1.226543   -1.141239   0.000000
 H       -2.164857   -0.581200   0.000000
 C       -1.217204   -2.548289   0.000000
 H       -2.167243   -3.090684   0.000000
 C       0.000000   -3.254869   0.000000
 H       0.000000   -4.348302   0.000000
 C       1.217204   -2.548289   0.000000
 H       2.167243   -3.090685   0.000000
 C       1.226543   -1.141238   0.000000
 H       2.164857   -0.581199   0.000000
 C       0.000000   -0.455662   0.000000
Cl       0.000000   1.298439   0.000000
--
0 1 
 O       0.000000   5.498439   0.000000
 H       -0.756950   6.084321   0.000000
 H       0.756950   6.084321   0.000000
}

set basis cc-pvqz
set df_basis_scf cc-pvqz-jkfit
set df_basis_mp2 cc-pvqz-ri
set guess sad
set scf_type df
set freeze_core True
cp('df-mp2')


