# RI-MP2/cc-pVQZ//MP2/aug-cc-pvdz
memory 1000 mb

molecule geom_16 {
0 1 
 C       -1.226543   -1.126534   0.000000
 H       -2.164857   -0.566495   0.000000
 C       -1.217204   -2.533584   0.000000
 H       -2.167243   -3.075979   0.000000
 C       0.000000   -3.240164   0.000000
 H       0.000000   -4.333597   0.000000
 C       1.217204   -2.533584   0.000000
 H       2.167243   -3.075980   0.000000
 C       1.226543   -1.126533   0.000000
 H       2.164857   -0.566494   0.000000
 C       0.000000   -0.440957   0.000000
Cl       0.000000   1.313144   0.000000
--
0 1 
 O       0.000000   5.413144   0.000000
 H       -0.756950   5.999027   0.000000
 H       0.756950   5.999027   0.000000
}

set basis cc-pvqz
set df_basis_scf cc-pvqz-jkfit
set df_basis_mp2 cc-pvqz-ri
set guess sad
set scf_type df
set freeze_core True
cp('df-mp2')


