# RI-MP2/cc-pVQZ//MP2/aug-cc-pvdz
memory 1000 mb

molecule geom_12 {
0 1 
 C       -1.226543   -1.067710   0.000000
 H       -2.164857   -0.507671   0.000000
 C       -1.217204   -2.474760   0.000000
 H       -2.167243   -3.017155   0.000000
 C       0.000000   -3.181340   0.000000
 H       0.000000   -4.274773   0.000000
 C       1.217204   -2.474760   0.000000
 H       2.167243   -3.017156   0.000000
 C       1.226543   -1.067709   0.000000
 H       2.164857   -0.507670   0.000000
 C       0.000000   -0.382133   0.000000
Cl       0.000000   1.371968   0.000000
--
0 1 
 O       0.000000   5.071968   0.000000
 H       -0.756950   5.657850   0.000000
 H       0.756950   5.657850   0.000000
}

set basis cc-pvqz
set df_basis_scf cc-pvqz-jkfit
set df_basis_mp2 cc-pvqz-ri
set guess sad
set scf_type df
set freeze_core True
cp('df-mp2')


