# RI-MP2/cc-pVQZ//MP2/aug-cc-pvdz
memory 1000 mb

molecule geom_13 {
0 1 
 C       -1.226543   -1.082416   0.000000
 H       -2.164857   -0.522377   0.000000
 C       -1.217204   -2.489466   0.000000
 H       -2.167243   -3.031861   0.000000
 C       0.000000   -3.196046   0.000000
 H       0.000000   -4.289479   0.000000
 C       1.217204   -2.489466   0.000000
 H       2.167243   -3.031862   0.000000
 C       1.226543   -1.082415   0.000000
 H       2.164857   -0.522376   0.000000
 C       0.000000   -0.396839   0.000000
Cl       0.000000   1.357262   0.000000
--
0 1 
 O       0.000000   5.157262   0.000000
 H       -0.756950   5.743144   0.000000
 H       0.756950   5.743144   0.000000
}

set basis cc-pvqz
set df_basis_scf cc-pvqz-jkfit
set df_basis_mp2 cc-pvqz-ri
set guess sad
set scf_type df
set freeze_core True
cp('df-mp2')


