# RI-MP2/cc-pVQZ//MP2/aug-cc-pvdz
memory 1000 mb

molecule geom_0 {
0 1 
 C       1.226543   -0.891239   0.000000
 H       2.164857   -0.331200   0.000000
 C       1.217204   -2.298289   0.000000
 H       2.167243   -2.840684   0.000000
 C       0.000000   -3.004869   0.000000
 H       0.000000   -4.098302   0.000000
 C       -1.217204   -2.298289   0.000000
 H       -2.167243   -2.840685   0.000000
 C       -1.226543   -0.891238   0.000000
 H       -2.164857   -0.331199   0.000000
 C       0.000000   -0.205662   0.000000
Cl       0.000000   1.548439   0.000000
--
0 1 
 O       0.000000   4.048439   0.000000
 H       0.756950   4.634321   0.000000
 H       -0.756950   4.634321   0.000000
}

set basis cc-pvqz
set df_basis_scf cc-pvqz-jkfit
set df_basis_mp2 cc-pvqz-ri
set guess sad
set scf_type df
set freeze_core True
cp('df-mp2')


