# RI-MP2/cc-pVQZ//MP2/aug-cc-pvdz
memory 1000 mb

molecule geom_23 {
0 1 
 C       -1.226543   -1.229475   0.000000
 H       -2.164857   -0.669436   0.000000
 C       -1.217204   -2.636525   0.000000
 H       -2.167243   -3.178920   0.000000
 C       0.000000   -3.343105   0.000000
 H       0.000000   -4.436538   0.000000
 C       1.217204   -2.636525   0.000000
 H       2.167243   -3.178921   0.000000
 C       1.226543   -1.229474   0.000000
 H       2.164857   -0.669435   0.000000
 C       0.000000   -0.543898   0.000000
Cl       0.000000   1.210203   0.000000
--
0 1 
 O       0.000000   6.010203   0.000000
 H       -0.756950   6.596086   0.000000
 H       0.756950   6.596086   0.000000
}

set basis cc-pvqz
set df_basis_scf cc-pvqz-jkfit
set df_basis_mp2 cc-pvqz-ri
set guess sad
set scf_type df
set freeze_core True
cp('df-mp2')


