%mem=16MW
#MP2/aug-cc-pVDZ Opt=Z-matrix

C2H...OHH  90.0 degrees, mp2/aug-cc-pVDZ

0 1
C1        0.173030   -1.226543    0.000000
H1       -0.387009   -2.164857    0.000000
C2        1.580080   -1.217204    0.000000
H2        2.122475   -2.167243    0.000000
C3        2.286660    0.000000    0.000000
H3        3.380093    0.000000    0.000000
C4        1.580080    1.217204    0.000000
H4        2.122476    2.167243    0.000000
C5        0.173029    1.226543    0.000000
H5       -0.387010    2.164857    0.000000
C6       -0.512547    0.000000    0.000000
CL6      -2.266648    0.000000    0.000000
x      H2    1.   C2  90.  C3   0.0
o1w    H2  roh     x  90.  C2 180.0
h1w   o1w  0.9572 H2 127.74 x  90.0
h2w   o1w  0.9572 H2 127.74 x -90.0

roh 2.1



