%CHK=CLET_OPT_FREQ_MP2
%mem=4GB
%nproc=4
#MP2/CC-PVQZ polar density=current

CLET OPTIMIZED AT MP2/cc-pVQZ

0 1
 C      0.000000    0.822370    0.000000
 CL     0.825357   -0.789016    0.000000
 H      0.356564    1.347568    0.896000
 H      0.356564    1.347568   -0.896000
 C     -1.511627    0.654420    0.000000
 H     -1.990226    1.647724    0.000000
 H     -1.842105    0.104833   -0.893316
 H     -1.842105    0.104833    0.893316



