# RI-MP2/cc-pVQZ//MP2/6-31G(d)

memory 1000 mb

molecule abc_ar {
0 1 
 C       -1.319360   0.458138   0.639111
 H       -2.087453   0.573957   1.412663
 O       -1.906053   0.366660   -0.649758
 H       -2.564996   -0.350578   -0.624538
 C       0.484277   -1.033746   0.120080
 H       0.120833   -1.193698   -0.902632
 O       -0.612200   -0.709673   1.001247
 C       -0.409437   1.679799   0.575514
 H       -0.045381   1.905844   1.583173
 O       -1.106814   2.839989   0.129067
 H       -1.645725   2.536614   -0.627296
 C       0.784397   1.389811   -0.318325
 H       0.441696   1.251677   -1.355156
 O       1.747537   2.439834   -0.247873
 H       1.255338   3.264750   -0.419441
 C       1.472418   0.123775   0.137038
 H       1.825499   0.268233   1.171166
 O       2.568834   -0.198641   -0.720851
 H       3.093661   0.620852   -0.799785
 C       1.084655   -2.333871   0.636898
 H       1.557843   -2.148439   1.613414
 H       0.280960   -3.059454   0.786423
 O       1.986844   -2.900047   -0.300495
 H       2.620238   -2.194335   -0.530752
--
0 1 
 O       -3.806692   -1.702123   -0.577015
 H       -4.735430   -1.636923   -0.354698
 H       -3.670441   -2.629921   -0.769002
}

set basis cc-pvqz
set df_basis_scf cc-pvqz-jkfit
set df_basis_mp2 cc-pvqz-ri
set guess sad
set scf_type df
set freeze_core True
cp('df-mp2')


